c Sudoku solution
p cnf 729 0
137 0
146 0
191 0
214 0
348 0
364 0
389 0
392 0
429 0
485 0
516 0
528 0
557 0
377 0
562 0
632 0
472 0
669 0
683 0
775 0
295 0
796 0
286 0
676 0
835 0
545 0
533 0
852 0
242 0
267 0
863 0
826 0
336 0
443 0
165 0
955 0
966 0
456 0
993 0
878 0
273 0
174 0
188 0
238 0
119 0
122 0
153 0
351 0
259 0
221 0
918 0
712 0
723 0
982 0
313 0
325 0
615 0
641 0
468 0
654 0
698 0
497 0
434 0
411 0
627 0
817 0
924 0
787 0
947 0
881 0
979 0
894 0
849 0
744 0
739 0
931 0
758 0
761 0
571 0
584 0
599 0
